language ESSENCE' 1.0

letting jobs = 102
letting horizon = 806
letting resourcesRenew = 2
letting resourcesNonrenew = 2
letting resourceLimits = [26, 26, 479, 467]
letting successors = [[2, 4, 5, 6, 7, 8, 9, 11, 12, 15, 17], [21, 20, 16, 13, 3], [23, 22, 19, 18, 14, 10], [23, 22, 19, 16, 14], [33, 29, 23, 22, 21, 16], [33, 29, 22, 21, 18, 16], [45, 37, 32, 28, 26, 21, 20, 18], [33, 29, 21, 18, 16], [45, 33, 29, 26, 24, 22, 18], [45, 33, 32, 31, 29, 28, 27, 26, 25], [45, 33, 29, 27, 26, 24, 22], [45, 26, 24, 23, 18], [45, 31, 28, 25, 22], [45, 42, 37, 33, 31, 29, 27, 25], [37, 32, 27, 21], [45, 32, 28, 27, 26], [42, 34, 33, 31, 29, 26], [42, 36, 31, 27, 25], [37, 32, 27, 24], [33, 31, 29, 25], [25, 24], [42, 37, 34, 32, 30], [42, 37, 35, 34, 30], [44, 42, 40, 38, 34, 31], [44, 35, 34, 30], [44, 39, 35, 30], [44, 34, 30], [49, 43, 42, 36], [55, 52, 49, 47, 46, 44, 43, 39], [49, 41, 40, 38], [55, 54, 52, 49, 46, 43, 41], [55, 52, 49, 46, 44, 43, 41], [55, 52, 41, 39, 38], [55, 52, 47, 46, 43, 39], [55, 54, 52, 49, 43, 41], [52, 47, 46, 44, 39], [52, 47, 44, 38], [58, 54, 50, 43], [64, 62, 60, 58, 57, 54, 50, 48], [64, 62, 55, 51, 50, 46], [62, 57, 50, 48, 47], [62, 61, 56, 55, 54, 46], [70, 68, 66, 65, 64, 62, 60, 56, 51], [70, 66, 65, 64, 62, 51, 50], [67, 66, 60, 53, 52, 50], [70, 68, 66, 65, 63, 59, 58, 57], [70, 68, 67, 64, 63, 59, 53], [83, 75, 73, 70, 69, 68, 66, 65, 63, 61, 59], [70, 68, 67, 60, 56], [68, 63, 56], [74, 61, 57], [83, 77, 76, 75, 74, 71, 70, 69, 65, 63], [90, 77, 73, 72, 69, 58], [83, 82, 75, 73, 69, 59], [82, 75, 74, 73, 71, 70, 69, 65], [83, 75, 69, 59], [92, 90, 89, 83, 82, 77, 73, 71, 69, 67], [92, 89, 88, 85, 83, 82, 79, 76, 75, 74, 71], [92, 90, 88, 85, 78, 77, 76, 74, 72, 71], [89, 87, 83, 77, 76, 63], [96, 92, 90, 88, 87, 85, 81, 78, 77, 72], [92, 90, 88, 85, 82, 74, 72, 71], [96, 92, 88, 86, 84, 82, 81, 79, 78], [96, 89, 88, 87, 86, 84, 82, 75], [92, 90, 88, 87, 86, 85, 72], [96, 89, 86, 85, 84, 81, 78], [86, 81, 76, 75], [96, 91, 89, 87, 84, 81, 80, 79], [88, 87, 86, 84, 81, 79], [101, 93, 92, 91, 87, 80], [101, 87, 86, 84, 81], [91, 89, 80, 79], [96, 95, 91, 88, 86, 80], [101, 95, 91, 86, 84], [93, 78], [101, 99, 96, 95, 84], [101, 91, 86, 84], [101, 95, 91, 80], [101, 100, 99, 95, 93], [100, 99, 98, 94], [100, 98, 95, 94], [100, 99, 98, 95], [100, 98, 95, 94], [100, 98, 93], [100, 91], [100, 99, 98, 97], [98, 95, 94], [99, 98, 94], [98, 95, 94], [101, 98, 97], [98, 94], [95, 94], [94], [97], [97], [97], [102], [102], [102], [102], [102], []]
letting durations = [[0], [3, 4, 5], [2, 6, 7], [1, 2, 6], [1, 2, 9], [5, 9, 10], [2, 3, 6], [5, 6, 8], [2, 3, 8], [3, 3, 9], [7, 8, 9], [2, 8, 10], [7, 9, 10], [1, 4, 7], [6, 7, 8], [6, 9, 10], [8, 9, 10], [1, 4, 10], [1, 3, 8], [2, 6, 7], [7, 8, 10], [2, 5, 7], [1, 9, 10], [1, 2, 6], [2, 7, 9], [2, 6, 8], [1, 5, 9], [6, 9, 10], [6, 6, 9], [1, 10, 10], [4, 6, 10], [5, 6, 6], [2, 6, 8], [1, 7, 9], [2, 7, 9], [4, 5, 8], [1, 3, 7], [2, 4, 8], [7, 8, 9], [2, 2, 4], [2, 3, 4], [3, 4, 9], [2, 3, 4], [4, 4, 5], [3, 4, 6], [1, 7, 7], [1, 5, 7], [1, 2, 5], [1, 3, 6], [1, 6, 9], [7, 9, 10], [4, 8, 9], [2, 3, 8], [1, 3, 4], [2, 7, 8], [1, 8, 9], [6, 8, 9], [2, 5, 10], [8, 8, 10], [6, 7, 8], [1, 7, 10], [2, 3, 9], [5, 9, 10], [4, 5, 10], [2, 4, 6], [3, 7, 10], [8, 9, 10], [1, 5, 9], [3, 4, 7], [1, 4, 7], [5, 9, 10], [5, 6, 8], [4, 6, 9], [1, 4, 6], [1, 2, 10], [4, 5, 6], [2, 9, 9], [1, 5, 8], [1, 3, 10], [3, 4, 9], [4, 6, 9], [1, 6, 9], [2, 7, 8], [2, 3, 6], [2, 4, 5], [2, 4, 5], [2, 6, 8], [6, 7, 7], [4, 5, 7], [8, 9, 10], [1, 4, 8], [3, 9, 10], [3, 5, 7], [1, 4, 5], [5, 7, 10], [2, 2, 9], [3, 4, 10], [3, 5, 7], [6, 6, 7], [1, 6, 7], [7, 7, 9], [0]]
letting resourceUsage = [[[0, 0, 0, 0]], [[3, 0, 7, 4], [0, 3, 6, 3], [0, 3, 4, 1]], [[0, 3, 9, 7], [2, 0, 8, 6], [0, 2, 7, 6]], [[4, 0, 3, 5], [3, 0, 3, 4], [0, 2, 3, 2]], [[3, 0, 3, 6], [3, 0, 3, 5], [3, 0, 3, 2]], [[3, 0, 9, 7], [0, 1, 7, 6], [0, 1, 6, 5]], [[5, 0, 5, 6], [4, 0, 4, 4], [3, 0, 4, 4]], [[5, 0, 8, 2], [0, 2, 4, 2], [5, 0, 3, 1]], [[0, 5, 4, 9], [0, 2, 3, 3], [1, 0, 2, 2]], [[4, 0, 7, 3], [0, 3, 6, 2], [0, 3, 6, 1]], [[0, 4, 8, 7], [0, 3, 7, 5], [0, 1, 7, 5]], [[4, 0, 7, 9], [4, 0, 6, 8], [3, 0, 2, 6]], [[0, 3, 8, 6], [0, 3, 7, 4], [4, 0, 5, 4]], [[0, 4, 10, 6], [0, 4, 7, 5], [3, 0, 7, 2]], [[0, 3, 7, 2], [3, 0, 4, 2], [3, 0, 2, 2]], [[0, 4, 4, 9], [0, 4, 3, 7], [0, 3, 2, 7]], [[0, 4, 7, 8], [2, 0, 6, 3], [2, 0, 5, 2]], [[3, 0, 4, 4], [0, 2, 4, 4], [3, 0, 4, 3]], [[5, 0, 8, 7], [0, 5, 5, 5], [0, 5, 3, 5]], [[0, 5, 6, 4], [3, 0, 5, 4], [0, 2, 3, 3]], [[0, 1, 8, 7], [0, 1, 5, 5], [2, 0, 1, 4]], [[0, 5, 6, 7], [0, 4, 5, 4], [1, 0, 4, 4]], [[0, 4, 7, 3], [0, 3, 6, 2], [0, 1, 5, 2]], [[5, 0, 8, 6], [4, 0, 6, 6], [0, 3, 5, 3]], [[0, 4, 6, 2], [0, 4, 5, 2], [0, 3, 5, 2]], [[0, 4, 9, 6], [0, 3, 9, 4], [0, 3, 9, 3]], [[0, 4, 5, 5], [1, 0, 2, 2], [0, 4, 1, 1]], [[0, 3, 6, 4], [0, 3, 5, 4], [3, 0, 4, 4]], [[0, 4, 4, 6], [4, 0, 4, 5], [4, 0, 4, 4]], [[4, 0, 8, 6], [2, 0, 7, 5], [0, 4, 5, 3]], [[5, 0, 7, 6], [0, 3, 7, 5], [3, 0, 5, 5]], [[4, 0, 9, 9], [0, 2, 5, 8], [3, 0, 5, 6]], [[5, 0, 5, 6], [3, 0, 3, 5], [0, 4, 3, 4]], [[0, 1, 4, 7], [0, 1, 2, 6], [0, 1, 2, 4]], [[2, 0, 2, 4], [1, 0, 1, 4], [0, 3, 1, 1]], [[3, 0, 8, 3], [1, 0, 8, 3], [1, 0, 5, 3]], [[0, 3, 8, 5], [0, 3, 8, 4], [3, 0, 6, 4]], [[3, 0, 8, 7], [2, 0, 8, 7], [2, 0, 8, 5]], [[4, 0, 10, 9], [3, 0, 9, 9], [3, 0, 8, 7]], [[4, 0, 7, 5], [0, 2, 5, 3], [0, 2, 3, 3]], [[3, 0, 7, 10], [3, 0, 6, 7], [3, 0, 6, 3]], [[3, 0, 2, 3], [0, 3, 1, 3], [2, 0, 1, 2]], [[0, 2, 8, 6], [0, 1, 5, 3], [4, 0, 2, 1]], [[5, 0, 10, 4], [0, 4, 9, 4], [0, 3, 8, 2]], [[0, 1, 9, 8], [1, 0, 6, 8], [0, 1, 3, 8]], [[0, 2, 10, 8], [1, 0, 9, 8], [0, 1, 7, 8]], [[4, 0, 7, 6], [3, 0, 5, 5], [3, 0, 5, 4]], [[0, 1, 8, 7], [0, 1, 5, 5], [2, 0, 4, 4]], [[4, 0, 4, 5], [0, 3, 2, 3], [0, 1, 2, 2]], [[0, 5, 5, 6], [2, 0, 5, 5], [2, 0, 5, 4]], [[4, 0, 6, 4], [3, 0, 5, 3], [2, 0, 3, 1]], [[0, 5, 2, 3], [0, 2, 1, 3], [0, 2, 1, 2]], [[5, 0, 10, 9], [0, 3, 7, 7], [0, 2, 7, 3]], [[5, 0, 6, 8], [0, 4, 6, 5], [0, 4, 5, 3]], [[3, 0, 5, 6], [0, 3, 4, 4], [2, 0, 3, 4]], [[2, 0, 10, 5], [2, 0, 8, 4], [0, 3, 7, 3]], [[4, 0, 5, 9], [0, 3, 5, 6], [3, 0, 5, 4]], [[0, 5, 3, 6], [3, 0, 3, 5], [0, 2, 3, 5]], [[0, 3, 8, 3], [1, 0, 7, 2], [0, 2, 5, 2]], [[4, 0, 8, 6], [0, 4, 7, 4], [0, 4, 4, 3]], [[0, 2, 3, 6], [0, 1, 3, 5], [0, 1, 2, 5]], [[0, 2, 9, 2], [4, 0, 6, 2], [3, 0, 2, 1]], [[0, 1, 4, 10], [0, 1, 3, 8], [1, 0, 2, 6]], [[0, 5, 9, 9], [3, 0, 7, 7], [0, 3, 5, 6]], [[0, 5, 8, 5], [2, 0, 7, 4], [1, 0, 7, 4]], [[0, 5, 8, 10], [0, 3, 7, 10], [4, 0, 7, 10]], [[4, 0, 4, 8], [2, 0, 4, 7], [2, 0, 3, 7]], [[0, 4, 8, 8], [0, 4, 7, 8], [0, 4, 4, 7]], [[0, 5, 3, 8], [3, 0, 3, 5], [0, 3, 1, 2]], [[3, 0, 8, 7], [0, 4, 6, 3], [0, 3, 6, 1]], [[2, 0, 7, 7], [1, 0, 7, 6], [0, 3, 5, 6]], [[4, 0, 8, 8], [0, 3, 7, 7], [0, 2, 7, 6]], [[0, 4, 7, 6], [0, 4, 4, 5], [2, 0, 3, 4]], [[3, 0, 8, 9], [1, 0, 8, 7], [1, 0, 7, 7]], [[5, 0, 2, 9], [4, 0, 2, 9], [3, 0, 2, 7]], [[2, 0, 4, 8], [0, 1, 2, 8], [2, 0, 1, 8]], [[3, 0, 6, 7], [1, 0, 6, 6], [0, 3, 5, 6]], [[4, 0, 1, 9], [0, 5, 1, 8], [0, 5, 1, 7]], [[0, 3, 7, 5], [0, 2, 7, 5], [2, 0, 4, 4]], [[0, 3, 3, 8], [4, 0, 3, 7], [0, 2, 1, 6]], [[4, 0, 4, 8], [3, 0, 3, 8], [0, 2, 3, 8]], [[0, 4, 6, 3], [0, 2, 4, 2], [0, 2, 2, 1]], [[3, 0, 3, 3], [2, 0, 3, 2], [0, 2, 3, 1]], [[5, 0, 9, 9], [0, 4, 9, 9], [3, 0, 9, 9]], [[4, 0, 6, 7], [0, 3, 5, 6], [3, 0, 5, 4]], [[5, 0, 9, 6], [5, 0, 8, 6], [5, 0, 6, 6]], [[0, 1, 7, 7], [1, 0, 6, 6], [1, 0, 5, 5]], [[1, 0, 8, 9], [0, 4, 7, 9], [1, 0, 7, 8]], [[0, 4, 5, 6], [2, 0, 2, 5], [2, 0, 1, 5]], [[0, 1, 4, 9], [0, 1, 2, 7], [3, 0, 2, 2]], [[0, 3, 7, 7], [0, 2, 6, 7], [0, 2, 5, 7]], [[0, 1, 7, 6], [4, 0, 4, 5], [0, 1, 3, 3]], [[0, 2, 9, 4], [0, 1, 9, 4], [0, 1, 9, 3]], [[3, 0, 7, 8], [2, 0, 5, 5], [0, 4, 3, 3]], [[0, 4, 6, 6], [0, 3, 4, 3], [0, 3, 1, 1]], [[0, 5, 6, 5], [4, 0, 5, 3], [0, 4, 5, 3]], [[5, 0, 4, 9], [5, 0, 2, 8], [5, 0, 1, 8]], [[0, 4, 10, 6], [0, 3, 8, 4], [0, 1, 6, 1]], [[0, 3, 9, 9], [2, 0, 7, 10], [2, 0, 7, 9]], [[4, 0, 9, 7], [0, 3, 8, 6], [0, 2, 8, 6]], [[0, 3, 6, 4], [4, 0, 5, 3], [0, 2, 4, 2]], [[0, 0, 0, 0]]]
